1 1 -2 0
1 3 4 0
1 -3 -5 0
1 -3 6 0
1 -3 2 0
1 -7 8 0
1 -2 3 0
1 2 -7 0
1 -9 10 0
1 9 11 0
1 9 12 0
1 -12 13 0
1 12 14 0
1 -15 16 0
1 -15 6 0
1 6 -17 0
1 -6 -18 0
1 -6 -15 0
1 -16 -19 0
1 -16 15 0
1 -16 -20 0
1 -21 8 0
1 -21 -20 0
1 -18 -17 0
1 19 -22 0
1 -23 24 0
1 23 -6 0
1 -22 -23 0
1 22 -25 0
1 26 -27 0
1 -28 -29 0
1 30 -4 0
1 -4 31 0
1 -4 -32 0
1 4 30 0
1 -33 30 0
1 -34 4 0
1 -34 35 0
1 34 -36 0
1 -29 -34 0
1 29 -37 0
1 29 38 0
1 -11 -15 0
1 -39 40 0
1 -41 -31 0
1 41 -42 0
1 10 9 0
1 10 33 0
1 10 42 0
1 10 43 0
1 31 -10 0
1 40 -44 0
1 40 41 0
1 -40 -11 0
1 44 11 0
1 14 45 0
1 14 43 0
1 46 -47 0
1 -46 19 0
1 -46 48 0
1 -49 -45 0
1 -50 -49 0
1 -50 -51 0
1 50 -27 0
1 43 49 0
1 43 -41 0
1 -43 52 0
1 -27 -24 0
1 27 47 0
1 -27 -43 0
1 20 -53 0
1 -54 -55 0
1 54 47 0
1 54 26 0
1 52 47 0
1 52 53 0
1 -53 -20 0
1 -47 -54 0
1 -25 55 0
1 56 -55 0
1 -56 -57 0
1 -58 -59 0
1 58 -60 0
1 -58 54 0
1 -57 -55 0
1 -57 -59 0
1 57 -60 0
1 -55 -21 0
1 61 58 0
1 -62 -63 0
1 -64 61 0
1 63 -62 0
1 63 65 0
1 63 -60 0
1 63 -61 0
1 66 -62 0
1 -66 67 0
1 68 -24 0
1 -68 56 0
1 69 -70 0
1 -69 -71 0
1 -69 30 0
1 69 72 0
1 71 -73 0
1 -71 -74 0
1 -75 71 0
1 -75 76 0
1 70 77 0
1 70 78 0
1 79 -78 0
1 -79 -80 0
1 79 81 0
1 79 -82 0
1 -79 83 0
1 79 69 0
1 -84 -85 0
1 84 29 0
1 -84 -71 0
1 86 75 0
1 86 84 0
1 -73 34 0
1 73 75 0
1 73 87 0
1 -85 88 0
1 -89 -90 0
1 -91 92 0
1 37 -34 0
1 48 -93 0
1 48 38 0
1 -48 -94 0
1 88 92 0
1 -88 -95 0
1 -88 96 0
1 -97 48 0
1 -98 -99 0
1 -87 36 0
1 -100 -101 0
1 -100 48 0
1 99 102 0
1 -103 102 0
1 -104 105 0
1 102 -106 0
1 -102 -48 0
1 102 107 0
1 93 108 0
1 -93 48 0
1 -38 -99 0
1 38 93 0
1 38 48 0
1 38 -109 0
1 110 -45 0
1 110 50 0
1 110 111 0
1 112 43 0
1 -112 113 0
1 -107 -114 0
1 -107 -51 0
1 -107 115 0
1 116 117 0
1 -105 117 0
1 105 116 0
1 -105 103 0
1 105 118 0
1 -119 -120 0
1 -111 -119 0
1 121 53 0
1 117 122 0
1 122 -123 0
1 -122 -124 0
1 124 -122 0
1 114 -121 0
1 125 -126 0
1 -125 42 0
1 -59 -127 0
1 59 68 0
1 67 51 0
1 128 129 0
1 128 -68 0
1 -130 -123 0
1 -123 128 0
1 -131 59 0
1 131 -132 0
1 -133 -64 0
1 -134 129 0
1 134 -135 0
1 134 136 0
1 -137 -138 0
1 -135 -139 0
1 -140 128 0
1 -140 141 0
1 -142 140 0
1 142 143 0
1 -142 -144 0
1 142 -136 0
1 139 136 0
1 -141 143 0
1 145 -144 0
1 -136 141 0
1 136 -134 0
1 -143 141 0
1 -146 -147 0
1 -72 148 0
1 -72 149 0
1 150 -151 0
1 150 152 0
1 -150 153 0
1 -149 154 0
1 -148 -154 0
1 148 -150 0
1 -148 -72 0
1 -152 155 0
1 -152 -146 0
1 156 79 0
1 156 157 0
1 -158 159 0
1 -158 -70 0
1 -83 -79 0
1 -78 73 0
1 78 160 0
1 -78 -70 0
1 -159 158 0
1 -153 -161 0
1 -153 159 0
1 153 83 0
1 153 72 0
1 157 -151 0
1 157 -155 0
1 -151 -78 0
1 -82 -79 0
1 -82 -153 0
1 77 -82 0
1 -77 153 0
1 -94 74 0
1 162 101 0
1 -163 92 0
1 -160 -164 0
1 -165 166 0
1 -167 168 0
1 169 -103 0
1 -74 -170 0
1 74 169 0
1 168 -171 0
1 -168 109 0
1 172 167 0
1 173 92 0
1 -173 -79 0
1 -173 174 0
1 -170 -175 0
1 -109 100 0
1 108 -168 0
1 175 -120 0
1 90 -176 0
1 90 -177 0
1 178 -38 0
1 -178 95 0
1 -179 180 0
1 181 -182 0
1 -181 -179 0
1 -181 183 0
1 181 120 0
1 -184 176 0
1 -127 -185 0
1 -186 187 0
1 188 -189 0
1 -190 -179 0
1 185 132 0
1 185 126 0
1 -185 -188 0
1 -185 -191 0
1 -185 120 0
1 -189 192 0
1 -192 179 0
1 -192 -38 0
1 -192 120 0
1 193 -194 0
1 193 195 0
1 -196 -132 0
1 196 -197 0
1 -132 -187 0
1 -132 198 0
1 -187 -193 0
1 197 -187 0
1 197 -196 0
1 -194 193 0
1 194 -199 0
1 200 201 0
1 200 202 0
1 203 -204 0
1 -203 205 0
1 -206 145 0
1 205 207 0
1 -205 -208 0
1 -209 -210 0
1 -209 196 0
1 198 -211 0
1 198 212 0
1 213 -205 0
1 214 212 0
1 -214 215 0
1 -216 -210 0
1 -216 -206 0
1 -216 217 0
1 -216 218 0
1 219 -220 0
1 218 221 0
1 -218 -222 0
1 -223 136 0
1 -224 -225 0
1 224 226 0
1 224 -227 0
1 -224 228 0
1 -229 215 0
1 215 225 0
1 -225 218 0
1 -225 -215 0
1 230 217 0
1 231 232 0
1 233 232 0
1 -228 -231 0
1 228 234 0
1 -232 234 0
1 232 -228 0
1 -235 -236 0
1 235 -230 0
1 -226 -233 0
1 -237 238 0
1 237 239 0
1 237 240 0
1 241 -242 0
1 -243 -241 0
1 243 -244 0
1 243 245 0
1 -243 246 0
1 244 246 0
1 242 -147 0
1 -246 238 0
1 246 -247 0
1 -246 -239 0
1 245 -248 0
1 248 -246 0
1 -240 -248 0
1 -240 241 0
1 240 -245 0
1 -238 245 0
1 239 249 0
1 239 246 0
1 -155 -250 0
1 155 154 0
1 155 251 0
1 155 -82 0
1 252 -253 0
1 252 -254 0
1 -255 154 0
1 -255 256 0
1 255 245 0
1 254 -154 0
1 250 -257 0
1 -250 -252 0
1 258 252 0
1 258 154 0
1 259 165 0
1 259 -151 0
1 -260 -261 0
1 -260 262 0
1 -263 -261 0
1 263 -165 0
1 263 -253 0
1 263 264 0
1 -265 263 0
1 265 161 0
1 253 263 0
1 266 267 0
1 266 -262 0
1 -268 177 0
1 267 -269 0
1 -267 -262 0
1 -267 -266 0
1 262 266 0
1 -262 -151 0
1 -270 271 0
1 -270 272 0
1 272 168 0
1 272 -273 0
1 -274 -261 0
1 -275 -266 0
1 275 276 0
1 166 276 0
1 -176 171 0
1 176 90 0
1 176 180 0
1 -277 -273 0
1 278 -279 0
1 280 281 0
1 282 280 0
1 171 -283 0
1 -284 -285 0
1 284 -176 0
1 -284 -280 0
1 174 -274 0
1 286 -287 0
1 -286 -288 0
1 286 -126 0
1 286 -183 0
1 -289 -196 0
1 -290 199 0
1 -287 278 0
1 287 -286 0
1 -279 286 0
1 279 291 0
1 292 -293 0
1 292 -287 0
1 292 290 0
1 294 -206 0
1 -294 -200 0
1 -295 -294 0
1 296 289 0
1 296 294 0
1 -296 -199 0
1 -297 294 0
1 -201 -191 0
1 201 202 0
1 -212 -298 0
1 212 299 0
1 -211 -300 0
1 191 301 0
1 -191 302 0
1 -191 -199 0
1 -301 -299 0
1 -303 -304 0
1 303 -298 0
1 -303 -204 0
1 -227 298 0
1 227 -305 0
1 227 -191 0
1 -227 -306 0
1 -307 -229 0
1 -307 -219 0
1 299 301 0
1 299 -197 0
1 299 -308 0
1 298 303 0
1 -306 309 0
1 306 211 0
1 306 310 0
1 -311 312 0
1 -313 -314 0
1 314 -315 0
1 314 -316 0
1 -317 -310 0
1 -318 -319 0
1 236 222 0
1 236 215 0
1 -316 -236 0
1 315 314 0
1 -320 321 0
1 -320 234 0
1 -322 -323 0
1 -220 324 0
1 -220 -325 0
1 220 -313 0
1 -326 325 0
1 -326 313 0
1 -323 327 0
1 323 226 0
1 -323 -320 0
1 -323 -328 0
1 329 330 0
1 331 327 0
1 327 -331 0
1 327 332 0
1 -333 324 0
1 -334 -330 0
1 -335 334 0
1 -336 -334 0
1 -337 329 0
1 338 335 0
1 339 -239 0
1 -340 341 0
1 -340 -258 0
1 -342 -343 0
1 342 -341 0
1 -344 -345 0
1 -256 346 0
1 -256 -347 0
1 256 348 0
1 349 -258 0
1 -350 -346 0
1 -345 344 0
1 345 346 0
1 -345 -351 0
1 345 352 0
1 345 -347 0
1 -345 -353 0
1 -345 268 0
1 343 340 0
1 -346 238 0
1 -346 -256 0
1 -354 351 0
1 -354 355 0
1 -354 353 0
1 356 -354 0
1 356 265 0
1 356 -348 0
1 -356 -272 0
1 -357 274 0
1 357 -358 0
1 359 -352 0
1 359 348 0
1 -359 360 0
1 -359 -361 0
1 -352 -362 0
1 -352 -276 0
1 355 -352 0
1 -355 -276 0
1 355 -345 0
1 -351 363 0
1 -351 -354 0
1 351 364 0
1 351 356 0
1 351 -345 0
1 -360 -365 0
1 360 -366 0
1 269 176 0
1 269 -275 0
1 269 367 0
1 367 -166 0
1 367 275 0
1 367 -358 0
1 368 269 0
1 -368 -369 0
1 -368 -370 0
1 371 -372 0
1 285 373 0
1 -370 373 0
1 -374 375 0
1 -376 276 0
1 376 377 0
1 -378 -285 0
1 378 370 0
1 375 379 0
1 -375 -374 0
1 -375 380 0
1 -375 362 0
1 -375 -381 0
1 -375 -382 0
1 375 -383 0
1 384 -385 0
1 -384 -282 0
1 -386 -387 0
1 386 384 0
1 -388 -294 0
1 -388 -389 0
1 387 -390 0
1 -387 382 0
1 391 -392 0
1 391 393 0
1 389 394 0
1 -385 395 0
1 -385 377 0
1 396 -397 0
1 396 -398 0
1 399 387 0
1 -400 401 0
1 -400 -397 0
1 400 -395 0
1 -402 391 0
1 -402 -403 0
1 398 401 0
1 -398 404 0
1 401 -398 0
1 -401 -405 0
1 397 406 0
1 397 -394 0
1 -407 293 0
1 407 408 0
1 407 -409 0
1 410 -303 0
1 -410 -297 0
1 -410 -291 0
1 305 -403 0
1 -305 411 0
1 -412 -413 0
1 -412 -414 0
1 -415 -416 0
1 415 417 0
1 -411 -418 0
1 -411 419 0
1 -291 412 0
1 -403 412 0
1 403 420 0
1 403 305 0
1 -403 -291 0
1 419 421 0
1 -419 298 0
1 309 -311 0
1 414 309 0
1 -413 -297 0
1 310 -317 0
1 -310 -299 0
1 310 316 0
1 -422 315 0
1 -319 -423 0
1 319 424 0
1 -302 325 0
1 424 -425 0
1 424 -426 0
1 -424 427 0
1 -424 -319 0
1 428 429 0
1 430 -431 0
1 -430 -432 0
1 430 -314 0
1 -433 434 0
1 -433 435 0
1 432 -436 0
1 -308 -430 0
1 -435 319 0
1 423 437 0
1 -438 -432 0
1 -438 -220 0
1 -439 440 0
1 -441 -317 0
1 441 442 0
1 -443 -362 0
1 -443 -444 0
1 -443 -366 0
1 -445 -446 0
1 445 -364 0
1 445 -447 0
1 444 365 0
1 448 -365 0
1 449 -341 0
1 449 -450 0
1 363 -371 0
1 -364 358 0
1 -446 -451 0
1 -452 453 0
1 -451 -453 0
1 -454 -346 0
1 455 364 0
1 -379 384 0
1 379 -378 0
1 -456 361 0
1 -383 451 0
1 383 -457 0
1 453 -458 0
1 -453 451 0
1 459 379 0
1 -459 446 0
1 -459 460 0
1 459 -461 0
1 459 -462 0
1 -459 -383 0
1 -461 463 0
1 461 -456 0
1 461 395 0
1 458 -453 0
1 457 463 0
1 377 -464 0
1 -381 -399 0
1 395 380 0
1 395 -465 0
1 -466 385 0
1 466 369 0
1 -466 -461 0
1 369 467 0
1 -372 -466 0
1 -464 358 0
1 464 -462 0
1 393 394 0
1 394 391 0
1 -394 -397 0
1 -406 -468 0
1 -406 -469 0
1 406 -470 0
1 -471 466 0
1 471 -420 0
1 -471 -395 0
1 -465 -376 0
1 465 472 0
1 -473 378 0
1 -380 474 0
1 380 475 0
1 472 -465 0
1 -472 -392 0
1 -476 469 0
1 -476 -390 0
1 -420 390 0
1 -477 -478 0
1 477 -420 0
1 477 479 0
1 -390 -406 0
1 390 -416 0
1 390 420 0
1 390 417 0
1 -392 420 0
1 469 480 0
1 481 385 0
1 -416 -482 0
1 416 417 0
1 -417 -403 0
1 -483 -478 0
1 484 485 0
1 -484 -483 0
1 479 486 0
1 -479 -487 0
1 -479 488 0
1 479 -483 0
1 479 417 0
1 485 -489 0
1 485 488 0
1 -426 490 0
1 489 491 0
1 -492 493 0
1 425 -418 0
1 -427 -494 0
1 427 434 0
1 427 -495 0
1 437 -436 0
1 -437 -418 0
1 494 -425 0
1 -490 496 0
1 497 -498 0
1 499 -500 0
1 501 502 0
1 500 463 0
1 498 503 0
1 -498 -501 0
1 450 -499 0
1 -462 464 0
1 -463 457 0
1 -504 -505 0
1 -506 463 0
1 506 -507 0
1 -508 -507 0
1 508 -509 0
1 508 462 0
1 510 380 0
1 -510 -511 0
1 -512 474 0
1 512 513 0
1 -512 -510 0
1 -512 -514 0
1 511 468 0
1 -515 -481 0
1 -516 380 0
1 -516 481 0
1 516 -517 0
1 516 518 0
1 -516 515 0
1 480 519 0
1 -480 520 0
1 480 521 0
1 467 522 0
1 467 369 0
1 -467 523 0
1 -467 521 0
1 521 -524 0
1 -521 -510 0
1 521 523 0
1 521 516 0
1 -517 464 0
1 522 -469 0
1 488 -481 0
1 -525 -526 0
1 525 -480 0
1 -519 -493 0
1 -519 525 0
1 -527 522 0
1 -475 522 0
1 -475 480 0
1 526 -425 0
1 -526 528 0
1 -526 484 0
1 526 492 0
1 486 529 0
1 -493 -529 0
1 530 -493 0
1 -514 -531 0
1 514 509 0
1 -532 533 0
1 -534 531 0
1 503 -535 0
1 -503 514 0
1 536 531 0
1 537 536 0
1 538 539 0
1 538 -540 0
1 541 -538 0
1 -541 -542 0
1 -543 544 0
1 -543 540 0
1 540 544 0
1 540 -506 0
1 533 508 0
1 -533 541 0
1 545 -509 0
1 -524 -543 0
1 -523 486 0
1 523 -542 0
1 544 475 0
1 -544 -493 0
1 544 513 0
1 546 544 0
1 -546 -547 0
1 -546 542 0
1 548 542 0
1 542 -548 0
